NAME : portcgen-19-1
COMMENT : portcgen N=19, seed=1
TYPE : TSP
DIMENSION : 19
EDGE_WEIGHT_TYPE : EUC_2D
NODE_COORD_SECTION
1 -154546 -315334
2 -112015 -131349
3 -50181 41752
4 -17255 -99303
5 -370877 110229
6 -151346 -241715
7 -316628 89315
8 206017 252184
9 258478 -131403
10 -135820 -139845
11 41794 109493
12 -130228 -39067
13 26866 -8229
14 -269435 410850
15 -84653 77761
16 -113049 -1358
17 -39311 14206
18 -210124 222107
19 2476 272092
